371 5
10 10 10 10 10 

0 0 0 0 0 0 5 2 34 66 98 110 
0 0 0 0 0 0 2 3 32 
10 1 1 0 0 1 1 4 
4 3 2 0 0 4 1 5 
2 3 6 0 0 4 1 6 
9 2 2 0 0 2 1 7 
9 1 2 0 0 2 2 31 8 
2 6 2 0 0 1 1 9 
4 1 2 0 0 5 1 10 
10 1 3 0 0 4 5 30 26 20 14 11 
2 3 1 0 0 2 1 12 
3 2 3 0 0 2 2 18 13 
6 2 3 0 0 5 1 15 
8 1 2 0 0 2 2 18 17 
5 3 2 0 0 1 1 16 
4 4 3 0 0 3 1 17 
1 2 1 0 0 2 1 19 
10 1 2 0 0 1 1 19 
4 4 2 0 0 1 3 29 21 68 
8 2 1 0 0 3 2 29 21 
2 1 1 0 0 3 1 22 
5 3 4 0 0 4 1 23 
10 5 2 0 0 4 1 24 
8 5 2 0 0 1 1 25 
6 3 2 0 0 1 1 27 
3 4 4 0 0 1 1 27 
3 2 4 0 0 4 1 28 
5 2 1 0 0 2 1 33 
6 1 4 0 0 3 1 33 
8 3 3 0 0 2 1 33 
2 2 6 0 0 4 1 33 
9 2 2 0 0 1 1 33 
0 0 0 0 0 0 1 268 
0 0 0 0 0 0 2 35 42 
2 1 1 0 1 0 1 36 
7 3 2 0 3 0 2 39 37 
1 3 2 0 4 0 1 38 
5 2 5 0 4 0 1 40 
8 4 3 0 2 0 1 40 
7 6 2 0 1 0 2 47 41 
6 1 2 0 1 0 2 43 182 
2 2 3 0 6 0 3 57 47 46 
10 2 3 0 2 0 2 57 44 
9 4 4 0 1 0 1 45 
4 2 4 0 1 0 1 46 
3 4 2 0 4 0 3 61 54 49 
2 3 3 0 2 0 1 48 
7 6 2 0 1 0 2 61 50 
3 2 3 0 3 0 1 50 
2 2 3 0 1 0 2 64 51 
4 2 1 0 3 0 1 52 
9 1 2 0 3 0 1 53 
4 2 2 0 2 0 1 55 
7 1 2 0 2 0 1 55 
2 1 3 0 5 0 1 56 
9 2 2 0 3 0 1 58 
9 3 3 0 2 0 2 61 60 
5 2 1 0 1 0 1 59 
5 2 3 0 2 0 1 60 
3 1 2 0 1 0 1 62 
9 4 1 0 7 0 1 62 
3 2 4 0 1 0 1 63 
4 3 4 0 3 0 1 65 
1 2 1 0 3 0 1 65 
0 0 0 0 0 0 1 268 
0 0 0 0 0 0 2 67 70 
5 0 1 1 1 0 1 68 
9 0 4 1 2 0 1 69 
7 0 2 1 4 0 2 72 71 
9 0 3 4 1 0 1 71 
9 0 1 1 2 0 1 73 
9 0 3 2 2 0 1 73 
9 0 1 4 1 0 2 77 74 
10 0 2 1 1 0 1 75 
1 0 3 5 5 0 2 79 76 
8 0 3 4 1 0 2 84 78 
5 0 2 3 4 0 2 79 78 
1 0 1 3 5 0 1 80 
7 0 6 3 4 0 1 80 
3 0 1 1 1 0 2 85 81 
9 0 1 2 3 0 1 82 
9 0 7 3 1 0 2 90 83 
6 0 1 1 2 0 2 92 86 
1 0 4 2 2 0 4 92 90 88 242 
6 0 1 2 4 0 2 92 87 
8 0 3 2 1 0 1 87 
4 0 1 2 2 0 1 88 
3 0 3 2 3 0 1 89 
4 0 1 5 4 0 1 91 
7 0 3 2 4 0 1 91 
8 0 4 3 4 0 1 93 
6 0 5 5 3 0 1 93 
9 0 2 3 3 0 1 94 
2 0 2 3 2 0 1 95 
2 0 2 3 2 0 1 96 
4 0 2 1 1 0 1 97 
0 0 0 0 0 0 1 268 
0 0 0 0 0 0 2 99 101 
10 0 0 1 0 0 1 100 
3 0 0 1 0 0 1 102 
4 0 0 3 0 0 1 102 
8 0 0 3 0 0 1 103 
5 0 0 3 0 0 1 104 
6 0 0 2 0 0 2 106 105 
6 0 0 3 0 0 2 108 107 
3 0 0 1 0 0 2 107 236 
2 0 0 4 0 0 1 109 
1 0 0 4 0 0 1 109 
0 0 0 0 0 0 4 142 154 176 198 
0 0 0 0 0 0 2 111 140 
4 0 1 0 1 1 1 112 
10 0 3 0 4 2 1 113 
6 0 1 0 2 2 1 114 
8 0 5 0 1 2 1 115 
6 0 1 0 2 3 2 139 116 
4 0 3 0 3 2 1 117 
1 0 3 0 2 2 5 138 137 136 135 118 
8 0 3 0 4 4 2 132 119 
7 0 2 0 3 4 1 120 
8 0 3 0 2 2 1 121 
2 0 1 0 2 3 1 122 
7 0 3 0 2 1 2 134 123 
3 0 3 0 2 1 1 124 
10 0 4 0 3 1 1 125 
3 0 1 0 2 2 1 126 
7 0 2 0 5 3 1 127 
4 0 3 0 2 2 1 128 
2 0 2 0 1 2 1 129 
8 0 2 0 4 2 1 130 
8 0 3 0 2 5 1 131 
10 0 2 0 4 1 1 133 
2 0 4 0 2 5 1 133 
4 0 1 0 3 5 1 141 
9 0 2 0 1 3 1 141 
6 0 2 0 3 2 1 141 
3 0 2 0 2 4 1 141 
6 0 2 0 2 2 2 141 143 
6 0 2 0 4 2 1 141 
1 0 5 0 3 2 1 141 
2 0 4 0 2 3 1 141 
0 0 0 0 0 0 1 268 
0 0 0 0 0 0 3 143 149 151 
3 0 1 0 0 0 3 148 144 270 
3 0 3 0 0 0 1 145 
8 0 1 0 0 0 1 146 
10 0 3 0 0 0 1 147 
10 0 5 0 0 0 1 150 
7 0 2 0 0 0 1 150 
10 0 4 0 0 0 1 150 
10 0 1 0 0 0 1 152 
10 0 2 0 0 0 1 152 
4 0 3 0 0 0 1 153 
0 0 0 0 0 0 4 220 232 244 256 
0 0 0 0 0 0 4 155 169 173 174 
6 1 1 0 0 0 2 172 156 
5 4 1 0 0 0 1 157 
5 1 2 0 0 0 1 158 
7 3 2 0 0 0 1 159 
3 3 2 0 0 0 1 160 
2 3 3 0 0 0 2 171 161 
4 2 1 0 0 0 1 162 
4 1 3 0 0 0 1 163 
3 6 2 0 0 0 1 164 
2 1 5 0 0 0 2 165 254 
6 4 1 0 0 0 1 166 
5 2 2 0 0 0 1 167 
8 3 3 0 0 0 1 168 
7 2 5 0 0 0 1 170 
8 2 4 0 0 0 1 170 
8 3 2 0 0 0 1 175 
5 3 1 0 0 0 1 175 
3 2 4 0 0 0 1 175 
2 3 3 0 0 0 1 175 
7 1 3 0 0 0 1 175 
0 0 0 0 0 0 1 268 
0 0 0 0 0 0 2 177 178 
1 1 0 0 0 1 2 180 179 
4 3 0 0 0 3 2 180 179 
10 3 0 0 0 1 2 183 181 
5 2 0 0 0 2 2 183 181 
3 3 0 0 0 1 2 182 293 
9 1 0 0 0 3 1 184 
10 4 0 0 0 3 1 184 
5 2 0 0 0 2 1 185 
8 2 0 0 0 5 2 187 186 
5 3 0 0 0 1 1 188 
7 4 0 0 0 1 1 188 
1 2 0 0 0 2 1 189 
2 2 0 0 0 3 1 190 
8 4 0 0 0 4 1 191 
6 3 0 0 0 4 2 195 192 
7 2 0 0 0 1 1 193 
8 2 0 0 0 2 1 194 
3 1 0 0 0 5 1 196 
10 4 0 0 0 3 1 196 
2 2 0 0 0 3 1 197 
0 0 0 0 0 0 1 268 
0 0 0 0 0 0 3 199 207 218 
10 1 0 0 1 0 2 217 200 
10 3 0 0 3 0 2 209 201 
10 3 0 0 5 0 1 202 
3 3 0 0 4 0 1 203 
2 2 0 0 1 0 1 204 
6 3 0 0 4 0 1 205 
4 3 0 0 6 0 1 206 
10 3 0 0 2 0 2 208 353 
8 2 0 0 1 0 1 208 
9 2 0 0 1 0 2 216 210 
7 3 0 0 2 0 2 216 210 
7 3 0 0 3 0 1 211 
3 3 0 0 1 0 1 212 
9 2 0 0 2 0 1 213 
2 2 0 0 2 0 1 214 
1 2 0 0 3 0 1 215 
2 3 0 0 2 0 1 219 
4 1 0 0 4 0 1 219 
7 4 0 0 1 0 1 219 
5 2 0 0 2 0 1 219 
0 0 0 0 0 0 1 268 
0 0 0 0 0 0 4 221 226 229 230 
8 0 0 0 0 1 1 222 
5 0 0 0 0 1 1 223 
10 0 0 0 0 3 1 224 
5 0 0 0 0 2 2 225 274 
10 0 0 0 0 3 1 227 
9 0 0 0 0 3 1 227 
1 0 0 0 0 3 1 228 
3 0 0 0 0 3 1 231 
1 0 0 0 0 3 1 231 
7 0 0 0 0 3 1 231 
0 0 0 0 0 0 1 268 
0 0 0 0 0 0 2 233 234 
6 0 0 0 0 1 1 235 
7 0 0 0 0 3 1 235 
4 0 0 0 0 1 2 238 236 
2 0 0 0 0 4 2 237 355 
6 0 0 0 0 2 1 239 
3 0 0 0 0 2 1 239 
8 0 0 0 0 3 2 242 240 
1 0 0 0 0 3 1 241 
10 0 0 0 0 3 1 243 
7 0 0 0 0 3 1 243 
0 0 0 0 0 0 1 268 
0 0 0 0 0 0 3 245 249 254 
6 0 0 0 0 1 2 246 337 
8 0 0 0 0 3 1 247 
6 0 0 0 0 1 1 248 
1 0 0 0 0 2 2 253 250 
9 0 0 0 0 4 2 253 250 
2 0 0 0 0 5 1 251 
10 0 0 0 0 2 1 252 
4 0 0 0 0 2 1 255 
3 0 0 0 0 2 1 255 
8 0 0 0 0 3 1 255 
0 0 0 0 0 0 1 268 
0 0 0 0 0 0 2 257 262 
6 0 1 0 0 0 1 258 
2 0 3 0 0 0 1 259 
6 0 2 0 0 0 1 260 
8 0 3 0 0 0 3 266 265 261 
7 0 2 0 0 0 2 263 277 
4 0 2 0 0 0 1 263 
9 0 2 0 0 0 1 264 
9 0 5 0 0 0 1 267 
5 0 4 0 0 0 1 267 
4 0 1 0 0 0 1 267 
0 0 0 0 0 0 1 268 
0 0 0 0 0 0 4 269 281 303 325 
0 0 0 0 0 0 2 270 354 
6 0 0 0 1 0 2 273 271 
6 0 0 0 2 0 1 272 
1 0 0 0 4 0 2 275 274 
10 0 0 0 4 0 2 277 274 
8 0 0 0 3 0 1 276 
3 0 0 0 1 0 1 276 
4 0 0 0 1 0 1 278 
7 0 0 0 3 0 1 278 
6 0 0 0 5 0 1 279 
8 0 0 0 1 0 1 280 
0 0 0 0 0 0 2 347 359 
0 0 0 0 0 0 2 282 285 
5 1 1 0 0 0 1 283 
5 1 3 0 0 0 2 290 284 
9 1 1 0 0 0 2 289 286 
9 3 4 0 0 0 2 289 286 
7 2 5 0 0 0 1 287 
7 3 2 0 0 0 2 295 288 
2 4 2 0 0 0 2 291 341 
4 5 2 0 0 0 1 291 
10 2 2 0 0 0 1 291 
9 2 3 0 0 0 1 292 
3 2 5 0 0 0 1 293 
7 2 3 0 0 0 1 294 
3 4 4 0 0 0 1 296 
5 4 3 0 0 0 1 296 
3 3 2 0 0 0 2 301 297 
8 2 2 0 0 0 1 298 
7 3 2 0 0 0 1 299 
9 3 2 0 0 0 1 300 
10 1 1 0 0 0 1 302 
5 2 1 0 0 0 1 302 
0 0 0 0 0 0 1 371 
0 0 0 0 0 0 1 304 
9 1 1 0 0 0 2 314 305 
5 4 1 0 0 0 1 306 
9 1 5 0 0 0 2 312 307 
10 3 1 0 0 0 1 308 
7 2 3 0 0 0 1 309 
1 2 3 0 0 0 2 316 310 
5 2 2 0 0 0 1 311 
3 3 3 0 0 0 2 323 313 
4 2 2 0 0 0 2 317 316 
9 3 2 0 0 0 1 315 
3 2 3 0 0 0 1 315 
2 2 2 0 0 0 2 320 317 
10 2 1 0 0 0 2 323 318 
5 5 1 0 0 0 1 318 
4 4 3 0 0 0 2 319 349 
1 1 2 0 0 0 1 321 
5 1 4 0 0 0 1 321 
10 4 6 0 0 0 1 322 
1 5 4 0 0 0 1 324 
4 1 1 0 0 0 1 324 
0 0 0 0 0 0 1 371 
0 0 0 0 0 0 2 326 345 
10 1 0 1 0 0 3 344 343 327 
8 3 0 3 0 0 1 328 
5 3 0 2 0 0 1 329 
4 1 0 5 0 0 1 330 
9 3 0 2 0 0 2 331 351 
1 3 0 1 0 0 1 332 
3 3 0 1 0 0 3 342 341 333 
3 1 0 1 0 0 1 334 
5 5 0 2 0 0 1 335 
8 2 0 2 0 0 1 336 
8 2 0 6 0 0 1 337 
2 2 0 3 0 0 1 338 
7 4 0 1 0 0 1 339 
4 2 0 2 0 0 1 340 
9 2 0 4 0 0 1 346 
9 1 0 2 0 0 1 346 
8 2 0 3 0 0 1 346 
4 3 0 4 0 0 1 346 
10 2 0 3 0 0 1 346 
4 5 0 2 0 0 1 346 
0 0 0 0 0 0 1 371 
0 0 0 0 0 0 3 348 353 362 
10 0 0 1 0 0 2 355 349 
3 0 0 5 0 0 1 350 
3 0 0 3 0 0 1 351 
5 0 0 3 0 0 1 352 
2 0 0 2 0 0 2 357 354 
4 0 0 3 0 0 2 357 354 
4 0 0 3 0 0 1 356 
6 0 0 1 0 0 1 356 
7 0 0 1 0 0 1 358 
2 0 0 3 0 0 1 358 
0 0 0 0 0 0 1 371 
0 0 0 0 0 0 2 360 364 
9 0 0 0 0 1 1 361 
8 0 0 0 0 1 1 362 
8 0 0 0 0 3 1 363 
2 0 0 0 0 2 3 369 368 365 
6 0 0 0 0 4 2 368 366 
7 0 0 0 0 4 1 366 
10 0 0 0 0 3 1 367 
1 0 0 0 0 3 1 370 
4 0 0 0 0 2 1 370 
8 0 0 0 0 2 1 370 
0 0 0 0 0 0 1 371 
0 0 0 0 0 0 0 
